119 48 011 1
1
386 113 1
359 114 1
295 115 1
272 116 1
302 117 1
335 118 1
328 119 1
311 108 1
314 109 1
282 110 1
336 111 1
387 112 1
278 113 1
474 114 1
318 115 1
335 116 1
306 117 1
287 118 1
301 119 1
346 108 1
257 109 1
280 110 1
283 111 1
314 112 1
372 113 1
330 114 1
278 115 1
283 116 1
299 117 1
446 118 1
378 119 1
388 108 1
335 109 1
328 110 1
375 111 1
294 112 1
322 113 1
239 114 1
347 115 1
222 116 1
384 117 1
299 118 1
361 119 1
310 108 1
384 109 1
412 110 1
340 111 1
345 112 1
1
1
1
1
1
1
1
1
1
1
1
1
1
1
1
1
1
1
1
1
1
1
1
1
1
1
1
1
1
1
1
1
1
1
1
1
1
1
1
1
1
1
1
1
1
1
1
1
1
1
1
1
1
1
1
1
1
1
1 9 310 21 345 33 387 45 309
1 10 313 22 256 34 334 46 383
1 11 281 23 279 35 327 47 411
1 12 335 24 282 36 374 48 339
1 13 386 25 313 37 293 49 344
1 2 385 14 277 26 371 38 321
1 3 358 15 473 27 329 39 238
1 4 294 16 317 28 277 40 346
1 5 271 17 334 29 282 41 221
1 6 301 18 305 30 298 42 383
1 7 334 19 286 31 445 43 298
1 8 327 20 300 32 377 44 360
